nohup: ignoring input
feasible solution found by trivial heuristic after 16.7 seconds, objective value 3.983191e+02
presolving:
(round 1, fast)       17431 del vars, 15004 del conss, 0 add conss, 0 chg bounds, 0 chg sides, 0 chg coeffs, 0 upgd conss, 0 impls, 2984987 clqs
(round 2, fast)       25267 del vars, 59925 del conss, 0 add conss, 0 chg bounds, 0 chg sides, 0 chg coeffs, 0 upgd conss, 0 impls, 2940066 clqs
   (54.3s) running MILP presolver
   (64.1s) MILP presolver (2 rounds): 0 aggregations, 195 fixings, 0 bound changes
(round 3, exhaustive) 25989 del vars, 62494 del conss, 0 add conss, 0 chg bounds, 0 chg sides, 0 chg coeffs, 0 upgd conss, 0 impls, 2937506 clqs
(round 4, exhaustive) 25992 del vars, 62497 del conss, 0 add conss, 0 chg bounds, 0 chg sides, 0 chg coeffs, 2937503 upgd conss, 0 impls, 2937503 clqs
   (135.5s) probing: 51/974008 (0.0%) - 0 fixings, 0 aggregations, 0 implications, 0 bound changes
   (135.5s) probing aborted: 50/50 successive totally useless probings
   (141.0s) symmetry computation started: requiring (bin +, int -, cont +), (fixed: bin -, int +, cont -)
   (148.9s) no symmetry present
presolving (5 rounds: 5 fast, 3 medium, 3 exhaustive):
 25992 deleted vars, 62497 deleted constraints, 0 added constraints, 0 tightened bounds, 0 added holes, 0 changed sides, 0 changed coefficients
 0 implications, 2937503 cliques
presolved problem has 974008 variables (974008 bin, 0 int, 0 impl, 0 cont) and 2937503 constraints
2937503 constraints of type <setppc>
Presolving Time: 141.03

 time | node  | left  |LP iter|LP it/n|mem/heur|mdpt |vars |cons |rows |cuts |sepa|confs|strbr|  dualbound   | primalbound  |  gap   | compl. 
t 156s|     1 |     0 |     0 |     - | trivial|   0 | 974k|2937k|   0 |   0 |  0 |   0 |   0 | 4.952963e+05 | 9.025819e+03 |5387.55%| unknown
p 368m|     1 |     0 |     0 |     - |   locks|   0 | 974k|2937k|2937k|   0 |  0 |   0 |   0 | 4.952963e+05 | 1.858086e+05 | 166.56%| unknown
i 384m|     1 |     0 |  1126 |     - |  oneopt|   0 | 974k|2937k|2937k|   0 |  0 |   0 |   0 | 4.952963e+05 | 1.884205e+05 | 162.87%| unknown
  999m|     1 |     0 |  1229k|     - |  9844M |   0 | 974k|2937k|2937k|   0 |  0 |   0 |   0 | 4.952963e+05 | 1.884205e+05 | 162.87%| unknown
(node 1) LP solver hit time limit in LP 2 -- using pseudo solution instead

SCIP Status        : solving was interrupted [time limit reached]
Solving Time (sec) : 59948.10
Solving Nodes      : 1
Primal Bound       : +1.88420496002484e+05 (5 solutions)
Dual Bound         : +4.95296290213063e+05
Gap                : 162.87 %
0.0
[60134.32302713394]
[188420.496002484]
